NAME : random588890
COMMENT: random generated with id 588890
TYPE : TSP
DIMENSION : 10
EDGE_WEIGHT_TYPE : EUC_2D
NODE_COORD_SECTION
1 12.880352 6.379406
2 19.274594 14.310759
3 8.233250 1.511513
4 17.946699 4.267914
5 7.589134 10.015683
6 4.521029 1.111664
7 11.131111 9.017913
8 15.918417 5.858679
9 4.103409 4.224229
10 5.609156 4.599766
EOF
